Route 1: 27 69 28 76 77 12 26 53 58 13 89
Route 2: 2 21 40 95 94 59 99 96 6 92 93
Route 3: 52 88 62 31 70 30 1 50 33 68
Route 4: 83 5 61 85 98 37 100 97 91 60
Route 5: 72 73 57 87 42 43 15 74
Route 6: 82 8 7 18 84 17 45 48
Route 7: 79 78 29 54 55 25 24 80
Route 8: 51 9 81 3 34 35
Route 9: 47 90 63 11 32 10
Route 10: 41 22 75 56 23 67 39 4
Route 11: 71 65 66 20 64
Route 12: 14 44 86 16 38
Route 13: 19 49 36 46
Vehicles: 13
Distance: 1450.70
